(set-info :smt-lib-version 2.6)
(set-logic QF_S)
(set-info :source |
Generated by: Oliver Markgraf, Hongjian Jiang, Daniel Stan, Anthony W. Lin, Philipp Ruemmer
Generated on: 2025-04-08
Application: Using String Solvers to solve RMC problems encoded as CHC over Strings
Target solver: cvc5, OSTRICH, Z3, Z3alpha, Z3-noodler
Time limit: 60.0
Benchmarks are extracted by running HornStr https://arg-git.informatik.uni-kl.de/pub/string-chc-lib on all benchmarks
provided in the repository and gathering the string queries sent to the string solvers.
|)
(set-info :license "https://creativecommons.org/licenses/by/4.0/")
(set-info :category "industrial")
(declare-fun Y () String)
(assert (str.in_re Y (re.* (re.union (str.to_re "N") (str.to_re "T")))))
(declare-fun X () String)
(declare-fun reg0 () String)
(declare-fun reg1 () String)
(assert (let ((a!1 (str.in_re reg0 (re.* (re.union (str.to_re "N") (str.to_re "T")))))
      (a!2 (str.in_re reg1 (re.* (re.union (str.to_re "N") (str.to_re "T"))))))
  (and true
       (= X (str.++ "" reg0 "T" reg1))
       (= Y (str.++ "" reg0 "T" reg1))
       a!1
       a!2)))
(push 1)
(assert (= X "T"))
(set-info :status unknown)
(check-sat)
(assert (distinct Y "T"))
(set-info :status unknown)
(check-sat)
(pop 1)
(push 1)
(assert (= X "TN"))
(set-info :status unknown)
(check-sat)
(assert (distinct Y "TN"))
(set-info :status unknown)
(check-sat)
(pop 1)
(push 1)
(assert (= X "TT"))
(set-info :status unknown)
(check-sat)
(assert (distinct Y "TT"))
(set-info :status unknown)
(check-sat)
(pop 1)
(push 1)
(assert (= X "NT"))
(set-info :status unknown)
(check-sat)
(assert (distinct Y "NT"))
(set-info :status unknown)
(check-sat)
(pop 1)
(exit)
